NAME: PointSet_Angle_60_2
TYPE: TSP
COMMENT: Points chosen discrete uniformly at random out of ${0, \ldots, 500}^2$.
DIMENSION: 60
EDGE_WEIGHT_TYPE: EUC_2D
NODE_COORD_SECTION
1 191 168
2 465 420
3 267 470
4 203 212
5 295 481
6 346 287
7 49 346
8 63 383
9 415 131
10 41 169
11 20 150
12 280 342
13 64 181
14 301 392
15 172 57
16 471 109
17 472 181
18 275 485
19 150 478
20 444 191
21 459 289
22 478 254
23 134 41
24 136 295
25 419 177
26 211 185
27 73 491
28 26 385
29 171 73
30 276 89
31 377 493
32 445 95
33 173 219
34 79 69
35 197 269
36 261 402
37 57 485
38 155 439
39 272 38
40 480 438
41 462 190
42 122 35
43 180 396
44 420 97
45 469 442
46 433 92
47 434 377
48 187 106
49 96 266
50 422 39
51 282 182
52 441 339
53 414 342
54 23 185
55 380 3
56 122 342
57 193 492
58 123 120
59 387 42
60 464 101
EOF
